
--- Job Example_2.gms Start 08/10/23 15:52:15 44.1.0 ab065035 WEX-WEI x86 64bit/MS Windows
--- Applying:
    C:\GAMS\44\gmsprmNT.txt
--- GAMS Parameters defined
    Input "C:\Users\kunya\OneDrive\Documents\Programming projects\1_LP\Example_2.gms"
    PageSize 0
    ScrDir "C:\Users\kunya\OneDrive\Documents\Programming projects\1_LP\225a\"
    SysDir C:\GAMS\44\
    LogOption 3
    ErrMsg 1
    ErrorLog 99
    IDE 1
    LstTitleLeftAligned 1
Licensee: GAMS Demo, for EULA and demo limitations see   G230706/0001CB-GEN
          https://www.gams.com/latest/docs/UG%5FLicense.html         DC0000
          C:\GAMS\44\gamslice.txt
          Demo license for demonstration and instructional purposes only
Processor information: 1 socket(s), 4 core(s), and 8 thread(s) available
GAMS 44.1.0   Copyright (C) 1987-2023 GAMS Development. All rights reserved
--- Starting compilation
--- Example_2.gms(68) 2 Mb
--- Starting execution: elapsed 0:00:00.010
--- Example_2.gms(65) 3 Mb
--- Generating LP model example_2
--- Example_2.gms(67) 3 Mb
---   15 rows  8 columns  50 non-zeroes
--- Range statistics (absolute non-zero finite values)
--- RHS       [min, max] : [ 1.100E+01, 1.900E+01] - Zero values observed as well
--- Bound     [min, max] : [        NA,        NA]
--- Matrix    [min, max] : [ 1.000E+00, 1.000E+00]
--- Executing CPLEX (Solvelink=2): elapsed 0:00:00.018

IBM ILOG CPLEX   44.1.0 ab065035 Jul 20, 2023          WEI x86 64bit/MS Window

--- *** This solver runs with a demo license. No commercial use.
--- GMO setup time: 0.00s
--- GMO memory 0.50 Mb (peak 0.50 Mb)
--- Dictionary memory 0.00 Mb
--- Cplex 22.1.1.0 link memory 0.00 Mb (peak 0.00 Mb)
--- Starting Cplex

Version identifier: 22.1.1.0 | 2022-11-27 | 9160aff4d
CPXPARAM_Advance                                 0
CPXPARAM_Simplex_Display                         2
CPXPARAM_Threads                                 1
CPXPARAM_MIP_Display                             4
CPXPARAM_MIP_Pool_Capacity                       0
CPXPARAM_MIP_Tolerances_AbsMIPGap                0
Tried aggregator 1 time.
LP Presolve eliminated 7 rows and 1 columns.
Reduced LP has 7 rows, 7 columns, and 35 nonzeros.
Presolve time = 0.00 sec. (0.01 ticks)

Iteration      Dual Objective            In Variable           Out Variable
     1              19.000000                     x1              eq4 slack
     2              19.000000                     x2              eq6 slack
     3              19.000000                     x3              eq7 slack
     4              19.000000                     x4              eq1 slack
     5              22.333333                     x6              eq3 slack

--- LP status (1): optimal.
--- Cplex Time: 0.00sec (det. 0.02 ticks)


Optimal solution found
Objective:           22.333333

--- Reading solution for model example_2
*** Status: Normal completion
--- Job Example_2.gms Stop 08/10/23 15:52:15 elapsed 0:00:00.104
